# Solution for model r3_t9_m8_0
# Finished Task: 9 / 9
# Makespan: 512.0, Total Distance: 578.0, Total Time: 0.1109
# R O S F
0 0 3 0.0 0.0
1 1 5 0.0 0.0
2 2 10 0.0 0.0
3 0 -1 341.0 380.0
4 2 9 381.0 404.0
5 1 7 181.0 209.0
6 2 4 276.0 311.0
7 1 11 376.0 404.0
8 2 6 229.0 266.0
9 2 -1 485.0 512.0
10 2 8 172.0 209.0
11 1 -1 472.0 498.0
